% seed = 2524207

mint = 58;
% maxt = 235;

nActs = 42;
dur = [0,7,7,3,4,6,4,10,6,4,3,7,1,8,5,9,9,10,5,10,5,2,2,4,7,9,3,8,10,3,1,7,9,7,5,9,6,6,5,5,4,0];

nSkills = 4;
sreq = [| 0,0,0,0,
	| 0,0,5,2,
	| 3,0,2,0,
	| 4,0,3,0,
	| 3,0,6,0,
	| 0,0,2,4,
	| 0,0,3,4,
	| 2,6,0,0,
	| 4,3,0,0,
	| 0,5,4,0,
	| 4,7,0,0,
	| 3,4,0,0,
	| 4,0,0,6,
	| 7,6,0,0,
	| 3,4,0,0,
	| 3,0,3,0,
	| 2,0,0,3,
	| 0,5,0,7,
	| 5,3,0,0,
	| 0,0,4,4,
	| 0,0,5,7,
	| 0,0,3,3,
	| 0,0,1,2,
	| 5,4,0,0,
	| 0,0,4,4,
	| 4,0,0,2,
	| 1,0,0,2,
	| 0,0,5,5,
	| 3,0,2,0,
	| 0,0,7,6,
	| 4,5,0,0,
	| 5,0,0,3,
	| 3,0,0,3,
	| 0,5,1,0,
	| 0,0,3,7,
	| 0,4,0,5,
	| 5,4,0,0,
	| 4,5,0,0,
	| 0,0,4,5,
	| 0,0,3,3,
	| 0,7,5,0,
	| 0,0,0,0, |];

nResources = 25;
mastery = [| false,false,false,true,
	| true,false,true,true,
	| false,true,true,true,
	| true,false,false,true,
	| true,true,false,true,
	| false,false,false,true,
	| true,true,true,false,
	| true,true,true,false,
	| true,true,false,true,
	| false,false,false,true,
	| true,false,true,true,
	| true,false,true,true,
	| false,false,true,false,
	| false,true,false,false,
	| false,false,true,false,
	| false,true,true,true,
	| true,false,false,false,
	| true,true,true,false,
	| true,false,true,true,
	| true,true,false,false,
	| true,false,true,true,
	| false,true,true,false,
	| true,false,true,false,
	| true,false,false,true,
	| false,false,false,true, |];

nPrecs = 85;
pred = [1,1,1,2,2,2,3,3,3,4,4,4,5,5,5,6,6,6,7,7,7,8,8,8,9,9,9,10,11,11,11,12,12,12,13,13,13,14,14,15,15,16,16,16,17,17,18,19,19,19,20,20,20,21,21,22,23,23,23,24,25,25,25,26,27,27,27,28,29,29,30,30,31,32,32,33,34,35,36,36,37,38,39,40,41];
succ = [2,3,4,9,11,5,18,38,24,16,6,8,25,20,12,27,13,7,10,12,29,10,20,22,14,15,22,39,25,17,27,34,23,26,19,30,23,39,24,26,28,17,19,30,26,37,32,28,21,24,35,21,23,31,40,32,28,31,40,33,34,29,31,41,36,29,30,36,33,37,35,32,36,33,34,40,41,38,37,39,38,41,42,42,42];

nUnrels = 436;
unpred = [2,2,2,2,2,2,2,2,2,2,3,3,3,3,3,3,3,3,3,3,3,3,3,3,3,3,3,3,3,3,3,3,3,3,3,3,3,3,3,3,4,4,4,4,4,4,4,5,5,5,5,5,5,5,5,5,5,5,5,5,5,5,5,5,5,6,6,6,6,6,6,6,6,6,6,6,7,7,7,7,7,7,7,7,7,7,7,7,7,7,7,7,7,7,7,8,8,8,8,8,8,8,8,8,8,8,8,8,8,8,8,9,9,9,9,9,9,9,9,9,9,9,9,9,9,9,9,9,10,10,10,10,10,10,10,10,10,10,10,10,10,10,10,10,10,10,10,10,10,10,10,10,10,10,10,10,10,10,11,11,11,11,11,11,11,11,11,11,11,11,11,12,12,12,12,12,12,12,12,12,12,12,12,12,12,12,12,12,12,13,13,13,13,13,13,13,13,13,13,13,14,14,14,14,14,14,14,14,14,14,14,14,14,14,14,14,14,14,14,14,14,14,14,15,15,15,15,15,15,15,15,15,15,15,15,15,15,15,15,15,15,15,16,16,16,16,16,16,16,17,17,17,17,17,17,17,17,17,17,17,17,17,17,17,17,17,17,17,17,18,18,18,18,18,18,18,18,18,18,18,18,18,18,18,18,18,18,19,19,19,19,19,19,19,19,19,19,19,20,20,20,20,20,20,20,20,20,20,21,21,21,21,21,21,21,21,21,21,21,21,21,22,22,22,22,22,22,22,22,22,22,22,22,22,22,23,23,23,23,23,23,23,23,23,23,24,24,24,24,24,24,24,24,24,24,24,24,24,24,24,25,25,25,25,25,25,26,26,26,26,26,26,26,26,26,26,26,26,26,26,27,27,28,28,28,28,28,28,28,28,29,29,29,29,29,29,29,30,30,30,30,31,31,31,31,31,32,32,32,32,32,33,33,33,33,33,33,33,34,34,34,34,34,34,35,35,35,35,36,37,37,38,38,39,39,40];
unsucc = [3,4,6,7,8,10,13,16,18,19,4,5,6,7,8,9,10,11,12,13,14,15,16,17,19,20,21,22,23,25,26,27,28,29,30,31,35,36,37,39,5,9,11,14,15,18,25,6,7,8,9,10,11,13,14,15,16,17,18,19,22,24,27,30,32,8,9,11,14,15,16,17,18,20,22,25,8,9,11,13,14,15,16,17,18,19,20,21,22,24,25,27,30,32,35,9,11,12,13,14,15,16,17,18,19,24,25,26,27,29,30,10,11,12,13,16,17,18,19,20,21,23,25,27,29,30,31,35,11,12,13,14,15,16,17,18,19,20,21,22,23,24,25,26,27,28,29,30,31,32,33,34,35,36,37,38,40,41,12,13,14,15,16,18,19,20,21,22,23,24,28,13,14,15,16,17,18,19,20,21,22,24,25,27,29,30,32,33,35,14,15,16,17,18,20,22,25,26,27,29,15,16,17,18,19,20,21,22,23,25,26,27,28,29,30,31,32,34,35,36,37,38,41,16,17,18,19,20,21,22,23,24,25,27,29,30,31,32,33,34,35,40,18,20,22,23,25,27,29,18,19,20,21,22,23,24,25,27,28,29,30,31,32,33,34,35,36,39,40,19,20,21,22,23,24,25,26,27,28,29,30,31,35,36,37,38,39,20,22,23,25,26,27,29,30,32,34,35,22,24,25,26,27,29,30,32,33,34,22,23,24,25,26,27,28,29,30,32,33,34,35,23,24,25,26,27,28,29,30,31,35,36,37,38,39,24,25,26,27,29,30,32,33,34,35,25,26,27,28,29,30,31,32,34,35,36,37,38,39,41,26,27,28,30,32,35,27,28,29,30,31,32,33,34,35,36,37,38,39,40,28,31,29,30,31,32,33,34,35,40,30,31,32,34,35,36,39,31,36,37,39,32,33,34,35,40,35,36,37,38,39,34,35,36,37,38,39,41,35,36,37,38,39,40,36,37,39,40,40,39,40,39,40,40,41,41];

USEFUL_RES = [{},
	{1,2,3,4,5,6,7,8,9,10,11,12,13,15,16,18,19,21,22,23,24,25},
	{2,3,4,5,7,8,9,11,12,13,15,16,17,18,19,20,21,22,23,24},
	{2,3,4,5,7,8,9,11,12,13,15,16,17,18,19,20,21,22,23,24},
	{2,3,4,5,7,8,9,11,12,13,15,16,17,18,19,20,21,22,23,24},
	{1,2,3,4,5,6,7,8,9,10,11,12,13,15,16,18,19,21,22,23,24,25},
	{1,2,3,4,5,6,7,8,9,10,11,12,13,15,16,18,19,21,22,23,24,25},
	{2,3,4,5,7,8,9,11,12,14,16,17,18,19,20,21,22,23,24},
	{2,3,4,5,7,8,9,11,12,14,16,17,18,19,20,21,22,23,24},
	{2,3,5,7,8,9,11,12,13,14,15,16,18,19,20,21,22,23},
	{2,3,4,5,7,8,9,11,12,14,16,17,18,19,20,21,22,23,24},
	{2,3,4,5,7,8,9,11,12,14,16,17,18,19,20,21,22,23,24},
	{1,2,3,4,5,6,7,8,9,10,11,12,16,17,18,19,20,21,23,24,25},
	{2,3,4,5,7,8,9,11,12,14,16,17,18,19,20,21,22,23,24},
	{2,3,4,5,7,8,9,11,12,14,16,17,18,19,20,21,22,23,24},
	{2,3,4,5,7,8,9,11,12,13,15,16,17,18,19,20,21,22,23,24},
	{1,2,3,4,5,6,7,8,9,10,11,12,16,17,18,19,20,21,23,24,25},
	{1,2,3,4,5,6,7,8,9,10,11,12,14,16,18,19,20,21,22,24,25},
	{2,3,4,5,7,8,9,11,12,14,16,17,18,19,20,21,22,23,24},
	{1,2,3,4,5,6,7,8,9,10,11,12,13,15,16,18,19,21,22,23,24,25},
	{1,2,3,4,5,6,7,8,9,10,11,12,13,15,16,18,19,21,22,23,24,25},
	{1,2,3,4,5,6,7,8,9,10,11,12,13,15,16,18,19,21,22,23,24,25},
	{1,2,3,4,5,6,7,8,9,10,11,12,13,15,16,18,19,21,22,23,24,25},
	{2,3,4,5,7,8,9,11,12,14,16,17,18,19,20,21,22,23,24},
	{1,2,3,4,5,6,7,8,9,10,11,12,13,15,16,18,19,21,22,23,24,25},
	{1,2,3,4,5,6,7,8,9,10,11,12,16,17,18,19,20,21,23,24,25},
	{1,2,3,4,5,6,7,8,9,10,11,12,16,17,18,19,20,21,23,24,25},
	{1,2,3,4,5,6,7,8,9,10,11,12,13,15,16,18,19,21,22,23,24,25},
	{2,3,4,5,7,8,9,11,12,13,15,16,17,18,19,20,21,22,23,24},
	{1,2,3,4,5,6,7,8,9,10,11,12,13,15,16,18,19,21,22,23,24,25},
	{2,3,4,5,7,8,9,11,12,14,16,17,18,19,20,21,22,23,24},
	{1,2,3,4,5,6,7,8,9,10,11,12,16,17,18,19,20,21,23,24,25},
	{1,2,3,4,5,6,7,8,9,10,11,12,16,17,18,19,20,21,23,24,25},
	{2,3,5,7,8,9,11,12,13,14,15,16,18,19,20,21,22,23},
	{1,2,3,4,5,6,7,8,9,10,11,12,13,15,16,18,19,21,22,23,24,25},
	{1,2,3,4,5,6,7,8,9,10,11,12,14,16,18,19,20,21,22,24,25},
	{2,3,4,5,7,8,9,11,12,14,16,17,18,19,20,21,22,23,24},
	{2,3,4,5,7,8,9,11,12,14,16,17,18,19,20,21,22,23,24},
	{1,2,3,4,5,6,7,8,9,10,11,12,13,15,16,18,19,21,22,23,24,25},
	{1,2,3,4,5,6,7,8,9,10,11,12,13,15,16,18,19,21,22,23,24,25},
	{2,3,5,7,8,9,11,12,13,14,15,16,18,19,20,21,22,23},
	{}];

POTENTIAL_ACT = [{2,6,7,13,17,18,20,21,22,23,25,26,27,28,30,32,33,35,36,39,40},
	{2,3,4,5,6,7,8,9,10,11,12,13,14,15,16,17,18,19,20,21,22,23,24,25,26,27,28,29,30,31,32,33,34,35,36,37,38,39,40,41},
	{2,3,4,5,6,7,8,9,10,11,12,13,14,15,16,17,18,19,20,21,22,23,24,25,26,27,28,29,30,31,32,33,34,35,36,37,38,39,40,41},
	{2,3,4,5,6,7,8,9,11,12,13,14,15,16,17,18,19,20,21,22,23,24,25,26,27,28,29,30,31,32,33,35,36,37,38,39,40},
	{2,3,4,5,6,7,8,9,10,11,12,13,14,15,16,17,18,19,20,21,22,23,24,25,26,27,28,29,30,31,32,33,34,35,36,37,38,39,40,41},
	{2,6,7,13,17,18,20,21,22,23,25,26,27,28,30,32,33,35,36,39,40},
	{2,3,4,5,6,7,8,9,10,11,12,13,14,15,16,17,18,19,20,21,22,23,24,25,26,27,28,29,30,31,32,33,34,35,36,37,38,39,40,41},
	{2,3,4,5,6,7,8,9,10,11,12,13,14,15,16,17,18,19,20,21,22,23,24,25,26,27,28,29,30,31,32,33,34,35,36,37,38,39,40,41},
	{2,3,4,5,6,7,8,9,10,11,12,13,14,15,16,17,18,19,20,21,22,23,24,25,26,27,28,29,30,31,32,33,34,35,36,37,38,39,40,41},
	{2,6,7,13,17,18,20,21,22,23,25,26,27,28,30,32,33,35,36,39,40},
	{2,3,4,5,6,7,8,9,10,11,12,13,14,15,16,17,18,19,20,21,22,23,24,25,26,27,28,29,30,31,32,33,34,35,36,37,38,39,40,41},
	{2,3,4,5,6,7,8,9,10,11,12,13,14,15,16,17,18,19,20,21,22,23,24,25,26,27,28,29,30,31,32,33,34,35,36,37,38,39,40,41},
	{2,3,4,5,6,7,10,16,20,21,22,23,25,28,29,30,34,35,39,40,41},
	{8,9,10,11,12,14,15,18,19,24,31,34,36,37,38,41},
	{2,3,4,5,6,7,10,16,20,21,22,23,25,28,29,30,34,35,39,40,41},
	{2,3,4,5,6,7,8,9,10,11,12,13,14,15,16,17,18,19,20,21,22,23,24,25,26,27,28,29,30,31,32,33,34,35,36,37,38,39,40,41},
	{3,4,5,8,9,11,12,13,14,15,16,17,19,24,26,27,29,31,32,33,37,38},
	{2,3,4,5,6,7,8,9,10,11,12,13,14,15,16,17,18,19,20,21,22,23,24,25,26,27,28,29,30,31,32,33,34,35,36,37,38,39,40,41},
	{2,3,4,5,6,7,8,9,10,11,12,13,14,15,16,17,18,19,20,21,22,23,24,25,26,27,28,29,30,31,32,33,34,35,36,37,38,39,40,41},
	{3,4,5,8,9,10,11,12,13,14,15,16,17,18,19,24,26,27,29,31,32,33,34,36,37,38,41},
	{2,3,4,5,6,7,8,9,10,11,12,13,14,15,16,17,18,19,20,21,22,23,24,25,26,27,28,29,30,31,32,33,34,35,36,37,38,39,40,41},
	{2,3,4,5,6,7,8,9,10,11,12,14,15,16,18,19,20,21,22,23,24,25,28,29,30,31,34,35,36,37,38,39,40,41},
	{2,3,4,5,6,7,8,9,10,11,12,13,14,15,16,17,19,20,21,22,23,24,25,26,27,28,29,30,31,32,33,34,35,37,38,39,40,41},
	{2,3,4,5,6,7,8,9,11,12,13,14,15,16,17,18,19,20,21,22,23,24,25,26,27,28,29,30,31,32,33,35,36,37,38,39,40},
	{2,6,7,13,17,18,20,21,22,23,25,26,27,28,30,32,33,35,36,39,40}];
